\Problem name: knapsack

Minimize
OBJROW: -24 var(0) -21 var(1) -25 var(2) -2 var(3) -43 var(4) -36 var(5) -43 var(6) -20 var(7) -50 var(8) -13 var(9)
 -27 var(10) -7 var(11) -30 var(12) -19 var(13) -35 var(14) -19 var(15) -3 var(16) -47 var(17) -43 var(18) -40 var(19)
 -23 var(20) -5 var(21) -26 var(22) -6 var(23) -30 var(24) -43 var(25) -34 var(26) -18 var(27) -27 var(28) -32 var(29)
 -36 var(30) -40 var(31) -39 var(32) -30 var(33) -46 var(34) -50 var(35) -38 var(36) -21 var(37) -50 var(38) -24 var(39)
 -48 var(40) -14 var(41) -4 var(42) -47 var(43) -17 var(44) -9 var(45) -20 var(46) -22 var(47) -34 var(48) -8 var(49)
 -7 var(50) -31 var(51) -26 var(52) -6 var(53) - var(54) -45 var(55) -33 var(56) -23 var(57) -5 var(58) -35 var(59)
 -10 var(60) -27 var(61) -39 var(62) -22 var(63) -17 var(64) -49 var(65) -36 var(66) -29 var(67) -21 var(68) -33 var(69)
 -16 var(70) -37 var(71) -32 var(72) -10 var(73) -2 var(74) -17 var(75) -22 var(76) -22 var(77) -34 var(78) -50 var(79)
 -22 var(80) -26 var(81) -7 var(82) -49 var(83) -16 var(84) -37 var(85) -13 var(86) -12 var(87) -46 var(88) -48 var(89)
 -23 var(90) -14 var(91) -45 var(92) -24 var(93) - var(94) -41 var(95) -12 var(96) -22 var(97) -21 var(98) -26 var(99)
 -36 var(100) -16 var(101) -45 var(102) -19 var(103) -41 var(104) - var(105) -41 var(106) -23 var(107) -6 var(108) -25 var(109)
 -49 var(110) -21 var(111) -15 var(112) -35 var(113) -39 var(114) -38 var(115) -42 var(116) -23 var(117) -32 var(118) -50 var(119)
 - var(120) -4 var(121) - var(122) -30 var(123) -50 var(124) -17 var(125) -35 var(126) -25 var(127) -36 var(128) -23 var(129)
 -15 var(130) -31 var(131) -27 var(132) -12 var(133) -2 var(134) -22 var(135) -9 var(136) -3 var(137) -18 var(138) -2 var(139)
 -24 var(140) -9 var(141) -42 var(142) -27 var(143) -6 var(144) -45 var(145) -42 var(146) -36 var(147) -16 var(148) -9 var(149)
 -47 var(150) -9 var(151) -4 var(152) -43 var(153) -35 var(154) -29 var(155) -15 var(156) -9 var(157) -5 var(158) -2 var(159)
 -36 var(160) -30 var(161) -48 var(162) -9 var(163) -42 var(164) -26 var(165) -19 var(166) -35 var(167) -43 var(168) -2 var(169)
 -33 var(170) -37 var(171) -42 var(172) -11 var(173) -15 var(174) -28 var(175) -49 var(176) -5 var(177) -2 var(178) -37 var(179)
 -39 var(180) -21 var(181) -26 var(182) -24 var(183) -2 var(184) -11 var(185) -22 var(186) -14 var(187) -32 var(188) -21 var(189)
 -40 var(190) -34 var(191) -40 var(192) -47 var(193) -25 var(194) -24 var(195) -33 var(196) -48 var(197) -11 var(198) -46 var(199)
 -26 var(200) -2 var(201) -4 var(202) -28 var(203) -12 var(204) -13 var(205) -24 var(206) -50 var(207) -25 var(208) -10 var(209)
 -18 var(210) -24 var(211) -40 var(212) -7 var(213) -15 var(214) -10 var(215) -30 var(216) -34 var(217) -42 var(218) -41 var(219)
 -31 var(220) -25 var(221) -49 var(222) -35 var(223) -35 var(224)
Subject To
constr(0):  27 var(0) + 17 var(1) + 25 var(2) + 21 var(3) + 17 var(4) + 21 var(5) + 19 var(6) + 29 var(7) + 14 var(8) + 12 var(9)
 + 8 var(10) + 18 var(11) + 20 var(12) + 3 var(13) + 14 var(14) + 8 var(15) + 19 var(16) + 27 var(17) + 23 var(18) + 21 var(19)
 + 17 var(20) + 7 var(21) + 6 var(22) + 22 var(23) + 22 var(24) + 6 var(25) + 7 var(26) + 21 var(27) + 9 var(28) + 9 var(29)
 + 28 var(30) + 27 var(31) + 20 var(32) + var(33) + 13 var(34) + 20 var(35) + 9 var(36) + 13 var(37) + 3 var(38) + 28 var(39)
 + 6 var(40) + 22 var(41) + 9 var(42) + 19 var(43) + 26 var(44) + 16 var(45) + 19 var(46) + 8 var(47) + 2 var(48) + 13 var(49)
 + 8 var(50) + 5 var(51) + 10 var(52) + 23 var(53) + 15 var(54) + 27 var(55) + 14 var(56) + 11 var(57) + 9 var(58) + 21 var(59)
 + 25 var(60) + var(61) + 30 var(62) + 16 var(63) + 4 var(64) + 26 var(65) + 6 var(66) + var(67) + 18 var(68) + 28 var(69)
 + 10 var(70) + 10 var(71) + 11 var(72) + 24 var(73) + 23 var(74) + 11 var(75) + 6 var(76) + 25 var(77) + 14 var(78) + 14 var(79)
 + 20 var(80) + 21 var(81) + 23 var(82) + 2 var(83) + 12 var(84) + 8 var(85) + 10 var(86) + 16 var(87) + 15 var(88) + 6 var(89)
 + 14 var(90) + 27 var(91) + 6 var(92) + 29 var(93) + 30 var(94) + 12 var(95) + 7 var(96) + 7 var(97) + 17 var(98) + 24 var(99)
 + 15 var(100) + 6 var(101) + 28 var(102) + 9 var(103) + 11 var(104) + 24 var(105) + 13 var(106) + 2 var(107) + 14 var(108) + 2 var(109)
 + 24 var(110) + 3 var(111) + 23 var(112) + var(113) + 11 var(114) + 21 var(115) + 21 var(116) + 29 var(117) + 29 var(118) + 26 var(119)
 + 30 var(120) + 11 var(121) + 18 var(122) + 6 var(123) + 14 var(124) + 2 var(125) + 26 var(126) + 8 var(127) + 18 var(128) + 22 var(129)
 + 5 var(130) + 23 var(131) + 4 var(132) + 26 var(133) + 8 var(134) + 19 var(135) + 4 var(136) + 7 var(137) + 26 var(138) + 9 var(139)
 + 23 var(140) + 14 var(141) + 18 var(142) + 4 var(143) + 25 var(144) + 23 var(145) + 24 var(146) + 16 var(147) + 5 var(148) + 17 var(149)
 + 21 var(150) + 17 var(151) + 20 var(152) + 14 var(153) + 2 var(154) + 11 var(155) + 7 var(156) + var(157) + 11 var(158) + var(159)
 + 25 var(160) + 5 var(161) + 26 var(162) + 12 var(163) + 5 var(164) + 21 var(165) + 27 var(166) + 21 var(167) + 13 var(168) + 23 var(169)
 + 27 var(170) + 16 var(171) + 16 var(172) + 21 var(173) + 4 var(174) + 4 var(175) + 6 var(176) + 29 var(177) + 13 var(178) + 18 var(179)
 + 7 var(180) + 26 var(181) + 21 var(182) + 16 var(183) + 6 var(184) + 17 var(185) + 19 var(186) + 12 var(187) + 24 var(188) + 24 var(189)
 + 13 var(190) + 4 var(191) + 26 var(192) + 23 var(193) + var(194) + 9 var(195) + 14 var(196) + 17 var(197) + 28 var(198) + 29 var(199)
 + 12 var(200) + 10 var(201) + 3 var(202) + 17 var(203) + 21 var(204) + 23 var(205) + 12 var(206) + 11 var(207) + 14 var(208) + 12 var(209)
 + 7 var(210) + 11 var(211) + 2 var(212) + 23 var(213) + 10 var(214) + 17 var(215) + 22 var(216) + 18 var(217) + var(218) + 12 var(219)
 + 5 var(220) + 15 var(221) + 8 var(222) + 30 var(223) + 23 var(224) <= 88
Bounds
 0 <= var(0) <= 1
 0 <= var(1) <= 1
 0 <= var(2) <= 1
 0 <= var(3) <= 1
 0 <= var(4) <= 1
 0 <= var(5) <= 1
 0 <= var(6) <= 1
 0 <= var(7) <= 1
 0 <= var(8) <= 1
 0 <= var(9) <= 1
 0 <= var(10) <= 1
 0 <= var(11) <= 1
 0 <= var(12) <= 1
 0 <= var(13) <= 1
 0 <= var(14) <= 1
 0 <= var(15) <= 1
 0 <= var(16) <= 1
 0 <= var(17) <= 1
 0 <= var(18) <= 1
 0 <= var(19) <= 1
 0 <= var(20) <= 1
 0 <= var(21) <= 1
 0 <= var(22) <= 1
 0 <= var(23) <= 1
 0 <= var(24) <= 1
 0 <= var(25) <= 1
 0 <= var(26) <= 1
 0 <= var(27) <= 1
 0 <= var(28) <= 1
 0 <= var(29) <= 1
 0 <= var(30) <= 1
 0 <= var(31) <= 1
 0 <= var(32) <= 1
 0 <= var(33) <= 1
 0 <= var(34) <= 1
 0 <= var(35) <= 1
 0 <= var(36) <= 1
 0 <= var(37) <= 1
 0 <= var(38) <= 1
 0 <= var(39) <= 1
 0 <= var(40) <= 1
 0 <= var(41) <= 1
 0 <= var(42) <= 1
 0 <= var(43) <= 1
 0 <= var(44) <= 1
 0 <= var(45) <= 1
 0 <= var(46) <= 1
 0 <= var(47) <= 1
 0 <= var(48) <= 1
 0 <= var(49) <= 1
 0 <= var(50) <= 1
 0 <= var(51) <= 1
 0 <= var(52) <= 1
 0 <= var(53) <= 1
 0 <= var(54) <= 1
 0 <= var(55) <= 1
 0 <= var(56) <= 1
 0 <= var(57) <= 1
 0 <= var(58) <= 1
 0 <= var(59) <= 1
 0 <= var(60) <= 1
 0 <= var(61) <= 1
 0 <= var(62) <= 1
 0 <= var(63) <= 1
 0 <= var(64) <= 1
 0 <= var(65) <= 1
 0 <= var(66) <= 1
 0 <= var(67) <= 1
 0 <= var(68) <= 1
 0 <= var(69) <= 1
 0 <= var(70) <= 1
 0 <= var(71) <= 1
 0 <= var(72) <= 1
 0 <= var(73) <= 1
 0 <= var(74) <= 1
 0 <= var(75) <= 1
 0 <= var(76) <= 1
 0 <= var(77) <= 1
 0 <= var(78) <= 1
 0 <= var(79) <= 1
 0 <= var(80) <= 1
 0 <= var(81) <= 1
 0 <= var(82) <= 1
 0 <= var(83) <= 1
 0 <= var(84) <= 1
 0 <= var(85) <= 1
 0 <= var(86) <= 1
 0 <= var(87) <= 1
 0 <= var(88) <= 1
 0 <= var(89) <= 1
 0 <= var(90) <= 1
 0 <= var(91) <= 1
 0 <= var(92) <= 1
 0 <= var(93) <= 1
 0 <= var(94) <= 1
 0 <= var(95) <= 1
 0 <= var(96) <= 1
 0 <= var(97) <= 1
 0 <= var(98) <= 1
 0 <= var(99) <= 1
 0 <= var(100) <= 1
 0 <= var(101) <= 1
 0 <= var(102) <= 1
 0 <= var(103) <= 1
 0 <= var(104) <= 1
 0 <= var(105) <= 1
 0 <= var(106) <= 1
 0 <= var(107) <= 1
 0 <= var(108) <= 1
 0 <= var(109) <= 1
 0 <= var(110) <= 1
 0 <= var(111) <= 1
 0 <= var(112) <= 1
 0 <= var(113) <= 1
 0 <= var(114) <= 1
 0 <= var(115) <= 1
 0 <= var(116) <= 1
 0 <= var(117) <= 1
 0 <= var(118) <= 1
 0 <= var(119) <= 1
 0 <= var(120) <= 1
 0 <= var(121) <= 1
 0 <= var(122) <= 1
 0 <= var(123) <= 1
 0 <= var(124) <= 1
 0 <= var(125) <= 1
 0 <= var(126) <= 1
 0 <= var(127) <= 1
 0 <= var(128) <= 1
 0 <= var(129) <= 1
 0 <= var(130) <= 1
 0 <= var(131) <= 1
 0 <= var(132) <= 1
 0 <= var(133) <= 1
 0 <= var(134) <= 1
 0 <= var(135) <= 1
 0 <= var(136) <= 1
 0 <= var(137) <= 1
 0 <= var(138) <= 1
 0 <= var(139) <= 1
 0 <= var(140) <= 1
 0 <= var(141) <= 1
 0 <= var(142) <= 1
 0 <= var(143) <= 1
 0 <= var(144) <= 1
 0 <= var(145) <= 1
 0 <= var(146) <= 1
 0 <= var(147) <= 1
 0 <= var(148) <= 1
 0 <= var(149) <= 1
 0 <= var(150) <= 1
 0 <= var(151) <= 1
 0 <= var(152) <= 1
 0 <= var(153) <= 1
 0 <= var(154) <= 1
 0 <= var(155) <= 1
 0 <= var(156) <= 1
 0 <= var(157) <= 1
 0 <= var(158) <= 1
 0 <= var(159) <= 1
 0 <= var(160) <= 1
 0 <= var(161) <= 1
 0 <= var(162) <= 1
 0 <= var(163) <= 1
 0 <= var(164) <= 1
 0 <= var(165) <= 1
 0 <= var(166) <= 1
 0 <= var(167) <= 1
 0 <= var(168) <= 1
 0 <= var(169) <= 1
 0 <= var(170) <= 1
 0 <= var(171) <= 1
 0 <= var(172) <= 1
 0 <= var(173) <= 1
 0 <= var(174) <= 1
 0 <= var(175) <= 1
 0 <= var(176) <= 1
 0 <= var(177) <= 1
 0 <= var(178) <= 1
 0 <= var(179) <= 1
 0 <= var(180) <= 1
 0 <= var(181) <= 1
 0 <= var(182) <= 1
 0 <= var(183) <= 1
 0 <= var(184) <= 1
 0 <= var(185) <= 1
 0 <= var(186) <= 1
 0 <= var(187) <= 1
 0 <= var(188) <= 1
 0 <= var(189) <= 1
 0 <= var(190) <= 1
 0 <= var(191) <= 1
 0 <= var(192) <= 1
 0 <= var(193) <= 1
 0 <= var(194) <= 1
 0 <= var(195) <= 1
 0 <= var(196) <= 1
 0 <= var(197) <= 1
 0 <= var(198) <= 1
 0 <= var(199) <= 1
 0 <= var(200) <= 1
 0 <= var(201) <= 1
 0 <= var(202) <= 1
 0 <= var(203) <= 1
 0 <= var(204) <= 1
 0 <= var(205) <= 1
 0 <= var(206) <= 1
 0 <= var(207) <= 1
 0 <= var(208) <= 1
 0 <= var(209) <= 1
 0 <= var(210) <= 1
 0 <= var(211) <= 1
 0 <= var(212) <= 1
 0 <= var(213) <= 1
 0 <= var(214) <= 1
 0 <= var(215) <= 1
 0 <= var(216) <= 1
 0 <= var(217) <= 1
 0 <= var(218) <= 1
 0 <= var(219) <= 1
 0 <= var(220) <= 1
 0 <= var(221) <= 1
 0 <= var(222) <= 1
 0 <= var(223) <= 1
 0 <= var(224) <= 1
Integers
var(0) var(1) var(2) var(3) var(4) var(5) var(6) var(7) var(8) var(9) 
var(10) var(11) var(12) var(13) var(14) var(15) var(16) var(17) var(18) var(19) 
var(20) var(21) var(22) var(23) var(24) var(25) var(26) var(27) var(28) var(29) 
var(30) var(31) var(32) var(33) var(34) var(35) var(36) var(37) var(38) var(39) 
var(40) var(41) var(42) var(43) var(44) var(45) var(46) var(47) var(48) var(49) 
var(50) var(51) var(52) var(53) var(54) var(55) var(56) var(57) var(58) var(59) 
var(60) var(61) var(62) var(63) var(64) var(65) var(66) var(67) var(68) var(69) 
var(70) var(71) var(72) var(73) var(74) var(75) var(76) var(77) var(78) var(79) 
var(80) var(81) var(82) var(83) var(84) var(85) var(86) var(87) var(88) var(89) 
var(90) var(91) var(92) var(93) var(94) var(95) var(96) var(97) var(98) var(99) 
var(100) var(101) var(102) var(103) var(104) var(105) var(106) var(107) var(108) var(109) 
var(110) var(111) var(112) var(113) var(114) var(115) var(116) var(117) var(118) var(119) 
var(120) var(121) var(122) var(123) var(124) var(125) var(126) var(127) var(128) var(129) 
var(130) var(131) var(132) var(133) var(134) var(135) var(136) var(137) var(138) var(139) 
var(140) var(141) var(142) var(143) var(144) var(145) var(146) var(147) var(148) var(149) 
var(150) var(151) var(152) var(153) var(154) var(155) var(156) var(157) var(158) var(159) 
var(160) var(161) var(162) var(163) var(164) var(165) var(166) var(167) var(168) var(169) 
var(170) var(171) var(172) var(173) var(174) var(175) var(176) var(177) var(178) var(179) 
var(180) var(181) var(182) var(183) var(184) var(185) var(186) var(187) var(188) var(189) 
var(190) var(191) var(192) var(193) var(194) var(195) var(196) var(197) var(198) var(199) 
var(200) var(201) var(202) var(203) var(204) var(205) var(206) var(207) var(208) var(209) 
var(210) var(211) var(212) var(213) var(214) var(215) var(216) var(217) var(218) var(219) 
var(220) var(221) var(222) var(223) var(224) 
End
